; DUP2 MLOAD DUP3 SWAP1 => DUP2 DUP1 MLOAD
(set-option :produce-proofs true)
; 
(set-info :status unknown)
(declare-fun storage_t ((_ BitVec 256) (_ BitVec 256) (_ BitVec 256) Int (_ BitVec 256)) (_ BitVec 256))
(declare-fun storage_s ((_ BitVec 256) (_ BitVec 256) (_ BitVec 256) Int (_ BitVec 256)) (_ BitVec 256))
(declare-fun exc_halt_t (Int) Bool)
(declare-fun exc_halt_s (Int) Bool)
(declare-fun sc_t (Int) (_ BitVec 6))
(declare-fun stack_t ((_ BitVec 256) (_ BitVec 256) (_ BitVec 256) Int (_ BitVec 6)) (_ BitVec 256))
(declare-fun stack_s ((_ BitVec 256) (_ BitVec 256) (_ BitVec 256) Int (_ BitVec 6)) (_ BitVec 256))
(declare-fun sc_s (Int) (_ BitVec 6))
(declare-fun used_gas_t ((_ BitVec 256) (_ BitVec 256) (_ BitVec 256) Int) Int)
(declare-fun used_gas_s ((_ BitVec 256) (_ BitVec 256) (_ BitVec 256) Int) Int)
(declare-fun f_MLOAD ((_ BitVec 256) (_ BitVec 256) (_ BitVec 256) (_ BitVec 256)) (_ BitVec 256))
(assert
 (exists ((x_0 (_ BitVec 256)) (x_1 (_ BitVec 256)) (x_MLOAD_0 (_ BitVec 256)) )(let (($x9465 (forall ((w (_ BitVec 256)) )(let ((?x963 (storage_t x_0 x_1 x_MLOAD_0 3 w)))
 (let ((?x725 (storage_s x_0 x_1 x_MLOAD_0 4 w)))
 (= ?x725 ?x963))))
 ))
 (let (($x9131 (exc_halt_t 3)))
 (let (($x9175 (exc_halt_s 4)))
 (let (($x4576 (= $x9175 $x9131)))
 (let (($x11638 (forall ((n (_ BitVec 6)) )(let ((?x7048 (stack_t x_0 x_1 x_MLOAD_0 3 n)))
 (let ((?x2219 (stack_s x_0 x_1 x_MLOAD_0 4 n)))
 (let (($x6059 (= ?x2219 ?x7048)))
 (or $x6059 (bvsle (sc_t 3) n))))))
 ))
 (let ((?x10013 (sc_t 3)))
 (let ((?x9433 (sc_s 4)))
 (let (($x133 (= ?x9433 ?x10013)))
 (let ((?x8057 (used_gas_t x_0 x_1 x_MLOAD_0 0)))
 (let ((?x10961 (used_gas_s x_0 x_1 x_MLOAD_0 0)))
 (let (($x3426 (= ?x10961 ?x8057)))
 (let (($x11258 (forall ((w (_ BitVec 256)) )(let ((?x150 (storage_t x_0 x_1 x_MLOAD_0 0 w)))
 (let ((?x4495 (storage_s x_0 x_1 x_MLOAD_0 0 w)))
 (= ?x4495 ?x150))))
 ))
 (let (($x56 (exc_halt_t 0)))
 (let (($x57 (exc_halt_s 0)))
 (let (($x58 (= $x57 $x56)))
 (let (($x3915 (forall ((n (_ BitVec 6)) )(let ((?x6648 (stack_t x_0 x_1 x_MLOAD_0 0 n)))
 (let ((?x8798 (stack_s x_0 x_1 x_MLOAD_0 0 n)))
 (let (($x8431 (= ?x8798 ?x6648)))
 (let ((?x63 (sc_t 0)))
 (let (($x3918 (bvsle ?x63 n)))
 (or $x3918 $x8431)))))))
 ))
 (let ((?x63 (sc_t 0)))
 (let ((?x72 (sc_s 0)))
 (let (($x73 (= ?x72 ?x63)))
 (let (($x4195 (= $x9131 (or (exc_halt_t 2) (not (bvsle (_ bv0 6) (bvadd (_ bv63 6) (sc_t 2))))))))
 (let (($x4986 (forall ((w (_ BitVec 256)) )(let ((?x7678 (storage_t x_0 x_1 x_MLOAD_0 2 w)))
 (let ((?x963 (storage_t x_0 x_1 x_MLOAD_0 3 w)))
 (= ?x963 ?x7678))))
 ))
 (let (($x4372 (forall ((n (_ BitVec 6)) )(let ((?x2121 (stack_t x_0 x_1 x_MLOAD_0 2 n)))
 (let ((?x7048 (stack_t x_0 x_1 x_MLOAD_0 3 n)))
 (or (bvsle (bvadd (_ bv63 6) (sc_t 2)) n) (= ?x7048 ?x2121)))))
 ))
 (let (($x6807 (= (used_gas_t x_0 x_1 x_MLOAD_0 3) (+ 3 (used_gas_t x_0 x_1 x_MLOAD_0 2)))))
 (let ((?x9666 (sc_t 2)))
 (let ((?x2733 (bvadd (_ bv63 6) ?x9666)))
 (let ((?x5005 (stack_t x_0 x_1 x_MLOAD_0 2 ?x2733)))
 (let (($x655 (= (stack_t x_0 x_1 x_MLOAD_0 3 (bvadd (_ bv63 6) ?x10013)) (f_MLOAD x_0 x_1 x_MLOAD_0 ?x5005))))
 (let (($x11030 (exc_halt_t 1)))
 (let (($x8403 (not (= ((_ extract 6 6) (bvadd (_ bv1 7) (concat (_ bv0 1) (sc_t 1)))) (_ bv0 1)))))
 (let (($x6842 (exc_halt_t 2)))
 (let (($x9182 (forall ((w (_ BitVec 256)) )(let ((?x11571 (storage_t x_0 x_1 x_MLOAD_0 1 w)))
 (let ((?x7678 (storage_t x_0 x_1 x_MLOAD_0 2 w)))
 (= ?x7678 ?x11571))))
 ))
 (let (($x7641 (forall ((n (_ BitVec 6)) )(let ((?x6955 (stack_t x_0 x_1 x_MLOAD_0 1 n)))
 (let ((?x2121 (stack_t x_0 x_1 x_MLOAD_0 2 n)))
 (or (= ?x2121 ?x6955) (bvsle (bvadd (_ bv63 6) (sc_t 1)) n)))))
 ))
 (let (($x9818 (= ?x9666 (bvadd (_ bv1 6) (sc_t 1)))))
 (let ((?x11165 (used_gas_t x_0 x_1 x_MLOAD_0 2)))
 (let ((?x4135 (sc_t 1)))
 (let ((?x7017 (bvadd (_ bv63 6) ?x4135)))
 (let ((?x4651 (stack_t x_0 x_1 x_MLOAD_0 1 ?x7017)))
 (let (($x9457 (not (= ((_ extract 6 6) (bvadd (_ bv1 7) (concat (_ bv0 1) ?x63))) (_ bv0 1)))))
 (let (($x3791 (not (bvsle (_ bv0 6) (bvadd (_ bv62 6) ?x63)))))
 (let (($x8474 (forall ((w (_ BitVec 256)) )(let ((?x150 (storage_t x_0 x_1 x_MLOAD_0 0 w)))
 (let ((?x11571 (storage_t x_0 x_1 x_MLOAD_0 1 w)))
 (= ?x11571 ?x150))))
 ))
 (let (($x6810 (forall ((n (_ BitVec 6)) )(let ((?x6648 (stack_t x_0 x_1 x_MLOAD_0 0 n)))
 (let ((?x6955 (stack_t x_0 x_1 x_MLOAD_0 1 n)))
 (let ((?x63 (sc_t 0)))
 (let ((?x10865 (bvadd (_ bv62 6) ?x63)))
 (let (($x2729 (bvsle ?x10865 n)))
 (or $x2729 (= ?x6955 ?x6648))))))))
 ))
 (let (($x4431 (= ?x4135 (bvadd (_ bv1 6) ?x63))))
 (let (($x10156 (= (stack_t x_0 x_1 x_MLOAD_0 1 (bvadd (_ bv63 6) ?x63)) (stack_t x_0 x_1 x_MLOAD_0 0 (bvadd (_ bv63 6) ?x63)))))
 (let ((?x10865 (bvadd (_ bv62 6) ?x63)))
 (let ((?x3391 (stack_t x_0 x_1 x_MLOAD_0 0 ?x10865)))
 (let (($x7924 (= $x9175 (or (exc_halt_s 3) (not (bvsle (_ bv0 6) (bvadd (_ bv62 6) (sc_s 3))))))))
 (let (($x2026 (forall ((w (_ BitVec 256)) )(let ((?x11618 (storage_s x_0 x_1 x_MLOAD_0 3 w)))
 (let ((?x725 (storage_s x_0 x_1 x_MLOAD_0 4 w)))
 (= ?x725 ?x11618))))
 ))
 (let (($x6973 (forall ((n (_ BitVec 6)) )(let ((?x6279 (stack_s x_0 x_1 x_MLOAD_0 3 n)))
 (let ((?x2219 (stack_s x_0 x_1 x_MLOAD_0 4 n)))
 (let ((?x3851 (sc_s 3)))
 (let ((?x6235 (bvadd (_ bv62 6) ?x3851)))
 (let (($x11846 (bvsle ?x6235 n)))
 (or $x11846 (= ?x2219 ?x6279))))))))
 ))
 (let ((?x3851 (sc_s 3)))
 (let (($x7570 (= ?x9433 ?x3851)))
 (let (($x10026 (= (used_gas_s x_0 x_1 x_MLOAD_0 4) (+ 3 (used_gas_s x_0 x_1 x_MLOAD_0 3)))))
 (let ((?x9078 (bvadd (_ bv63 6) ?x3851)))
 (let ((?x1217 (stack_s x_0 x_1 x_MLOAD_0 3 ?x9078)))
 (let (($x10091 (= (stack_s x_0 x_1 x_MLOAD_0 4 (bvadd (_ bv63 6) ?x9433)) (stack_s x_0 x_1 x_MLOAD_0 3 (bvadd (_ bv62 6) ?x3851)))))
 (let (($x10052 (exc_halt_s 2)))
 (let (($x9619 (not (bvsle (_ bv0 6) (bvadd (_ bv61 6) (sc_s 2))))))
 (let (($x5066 (not (= ((_ extract 6 6) (bvadd (_ bv1 7) (concat (_ bv0 1) (sc_s 2)))) (_ bv0 1)))))
 (let (($x8103 (exc_halt_s 3)))
 (let (($x5095 (forall ((w (_ BitVec 256)) )(let ((?x4131 (storage_s x_0 x_1 x_MLOAD_0 2 w)))
 (let ((?x11618 (storage_s x_0 x_1 x_MLOAD_0 3 w)))
 (= ?x11618 ?x4131))))
 ))
 (let (($x6841 (forall ((n (_ BitVec 6)) )(let ((?x122 (stack_s x_0 x_1 x_MLOAD_0 2 n)))
 (let ((?x6279 (stack_s x_0 x_1 x_MLOAD_0 3 n)))
 (let ((?x2272 (sc_s 2)))
 (let ((?x9534 (bvadd (_ bv61 6) ?x2272)))
 (let (($x4186 (bvsle ?x9534 n)))
 (or $x4186 (= ?x6279 ?x122))))))))
 ))
 (let (($x260 (= ?x3851 (bvadd (_ bv1 6) (sc_s 2)))))
 (let ((?x2241 (used_gas_s x_0 x_1 x_MLOAD_0 3)))
 (let ((?x2272 (sc_s 2)))
 (let ((?x3887 (bvadd (_ bv63 6) ?x2272)))
 (let ((?x11041 (stack_s x_0 x_1 x_MLOAD_0 2 ?x3887)))
 (let (($x3096 (= (stack_s x_0 x_1 x_MLOAD_0 3 (bvadd (_ bv62 6) ?x2272)) (stack_s x_0 x_1 x_MLOAD_0 2 (bvadd (_ bv62 6) ?x2272)))))
 (let ((?x9534 (bvadd (_ bv61 6) ?x2272)))
 (let ((?x4321 (stack_s x_0 x_1 x_MLOAD_0 2 ?x9534)))
 (let (($x4454 (= $x10052 (or (exc_halt_s 1) (not (bvsle (_ bv0 6) (bvadd (_ bv63 6) (sc_s 1))))))))
 (let (($x838 (forall ((w (_ BitVec 256)) )(let ((?x5509 (storage_s x_0 x_1 x_MLOAD_0 1 w)))
 (let ((?x4131 (storage_s x_0 x_1 x_MLOAD_0 2 w)))
 (= ?x4131 ?x5509))))
 ))
 (let (($x5974 (forall ((n (_ BitVec 6)) )(let ((?x154 (sc_s 1)))
 (let ((?x7184 (bvadd (_ bv63 6) ?x154)))
 (let (($x3589 (bvsle ?x7184 n)))
 (let ((?x9394 (stack_s x_0 x_1 x_MLOAD_0 1 n)))
 (let ((?x122 (stack_s x_0 x_1 x_MLOAD_0 2 n)))
 (or (= ?x122 ?x9394) $x3589)))))))
 ))
 (let ((?x154 (sc_s 1)))
 (let (($x6737 (= ?x2272 ?x154)))
 (let ((?x10904 (used_gas_s x_0 x_1 x_MLOAD_0 2)))
 (let ((?x7184 (bvadd (_ bv63 6) ?x154)))
 (let ((?x130 (stack_s x_0 x_1 x_MLOAD_0 1 ?x7184)))
 (let (($x5104 (not (= ((_ extract 6 6) (bvadd (_ bv1 7) (concat (_ bv0 1) ?x72))) (_ bv0 1)))))
 (let (($x8780 (exc_halt_s 1)))
 (let (($x959 (forall ((w (_ BitVec 256)) )(let ((?x4495 (storage_s x_0 x_1 x_MLOAD_0 0 w)))
 (let ((?x5509 (storage_s x_0 x_1 x_MLOAD_0 1 w)))
 (= ?x5509 ?x4495))))
 ))
 (let (($x3009 (forall ((n (_ BitVec 6)) )(let ((?x8798 (stack_s x_0 x_1 x_MLOAD_0 0 n)))
 (let ((?x9394 (stack_s x_0 x_1 x_MLOAD_0 1 n)))
 (or (= ?x9394 ?x8798) (bvsle (bvadd (_ bv62 6) (sc_s 0)) n)))))
 ))
 (let (($x11116 (= ?x154 (bvadd (_ bv1 6) ?x72))))
 (let (($x11996 (= (stack_s x_0 x_1 x_MLOAD_0 1 (bvadd (_ bv63 6) ?x72)) (stack_s x_0 x_1 x_MLOAD_0 0 (bvadd (_ bv63 6) ?x72)))))
 (let ((?x3766 (bvadd (_ bv62 6) ?x72)))
 (let ((?x4955 (stack_s x_0 x_1 x_MLOAD_0 0 ?x3766)))
 (let (($x527 (forall ((w0 (_ BitVec 256)) )(let ((?x8341 (ite (= (stack_s x_0 x_1 x_MLOAD_0 1 (bvadd (_ bv63 6) (sc_s 1))) w0) x_MLOAD_0 (_ bv0 256))))
 (let ((?x5642 (f_MLOAD x_0 x_1 x_MLOAD_0 w0)))
 (= ?x5642 ?x8341))))
 ))
 (let (($x313 (forall ((w (_ BitVec 256)) )(let ((?x4495 (storage_s x_0 x_1 x_MLOAD_0 0 w)))
 (= ?x4495 (_ bv0 256))))
 ))
 (let (($x8756 (= ?x10961 0)))
 (let (($x2113 (not $x57)))
 (let (($x1787 (= (stack_s x_0 x_1 x_MLOAD_0 0 (_ bv1 6)) x_1)))
 (let (($x10184 (= (stack_s x_0 x_1 x_MLOAD_0 0 (_ bv0 6)) x_0)))
 (let (($x5626 (= ?x72 (_ bv2 6))))
 (and $x5626 $x10184 $x1787 $x2113 $x8756 $x313 $x527 (= ?x130 ?x4955) (= (stack_s x_0 x_1 x_MLOAD_0 1 ?x3766) ?x4955) $x11996 (= (used_gas_s x_0 x_1 x_MLOAD_0 1) (+ 3 ?x10961)) $x11116 $x3009 $x959 (= $x8780 (or $x57 (not (bvsle (_ bv0 6) ?x3766)) $x5104)) (= ?x11041 (f_MLOAD x_0 x_1 x_MLOAD_0 ?x130)) (= ?x10904 (+ 3 (used_gas_s x_0 x_1 x_MLOAD_0 1))) $x6737 $x5974 $x838 $x4454 (= ?x1217 ?x4321) (= (stack_s x_0 x_1 x_MLOAD_0 3 ?x9534) ?x4321) $x3096 (= (stack_s x_0 x_1 x_MLOAD_0 3 ?x3887) ?x11041) (= ?x2241 (+ 3 ?x10904)) $x260 $x6841 $x5095 (= $x8103 (or $x5066 $x9619 $x10052)) $x10091 (= (stack_s x_0 x_1 x_MLOAD_0 4 (bvadd (_ bv62 6) ?x9433)) ?x1217) $x10026 $x7570 $x6973 $x2026 $x7924 (= ?x4651 ?x3391) (= (stack_t x_0 x_1 x_MLOAD_0 1 ?x10865) ?x3391) $x10156 (= (used_gas_t x_0 x_1 x_MLOAD_0 1) (+ 3 ?x8057)) $x4431 $x6810 $x8474 (= $x11030 (or $x56 $x3791 $x9457)) (= ?x5005 ?x4651) (= (stack_t x_0 x_1 x_MLOAD_0 2 ?x7017) ?x4651) (= ?x11165 (+ 3 (used_gas_t x_0 x_1 x_MLOAD_0 1))) $x9818 $x7641 $x9182 (= $x6842 (or (not (bvsle (_ bv0 6) ?x7017)) $x8403 $x11030)) $x655 $x6807 (= ?x10013 ?x9666) $x4372 $x4986 $x4195 $x73 $x3915 $x58 $x11258 $x3426 (not (and $x133 $x11638 $x4576 $x9465)))))))))))))))))))))))))))))))))))))))))))))))))))))))))))))))))))))))))))))))))))))))))))))))
 )
(check-sat)
(get-proof)
